# Solution for model continuous_k_medians
# Objective value = 44207
x[0,0] 0
x[0,1] 1
x[1,0] 0
x[1,1] 1
x[2,0] 1
x[2,1] 0
x[3,0] 1
x[3,1] 0
x[4,0] 1
x[4,1] 0
x[5,0] 0
x[5,1] 1
x[6,0] 0
x[6,1] 1
x[7,0] 0
x[7,1] 1
x[8,0] 1
x[8,1] 0
x[9,0] 1
x[9,1] 0
x[10,0] 1
x[10,1] 0
x[11,0] 0
x[11,1] 1
x[12,0] 1
x[12,1] 0
x[13,0] 1
x[13,1] 0
x[14,0] 0
x[14,1] 1
x[15,0] 1
x[15,1] 0
x[16,0] 1
x[16,1] 0
x[17,0] 1
x[17,1] 0
x[18,0] 0
x[18,1] 1
x[19,0] 0
x[19,1] 1
x[20,0] 0
x[20,1] 1
x[21,0] 0
x[21,1] 1
x[22,0] 0
x[22,1] 1
x[23,0] 1
x[23,1] 0
x[24,0] 1
x[24,1] 0
x[25,0] 0
x[25,1] 1
x[26,0] 0
x[26,1] 1
x[27,0] 0
x[27,1] 1
x[28,0] 0
x[28,1] 1
x[29,0] 0
x[29,1] 1
x[30,0] 0
x[30,1] 1
x[31,0] 0
x[31,1] 1
x[32,0] 1
x[32,1] 0
x[33,0] 0
x[33,1] 1
x[34,0] 0
x[34,1] 1
x[35,0] 0
x[35,1] 1
x[36,0] 0
x[36,1] 1
x[37,0] 1
x[37,1] 0
x[38,0] 0
x[38,1] 1
x[39,0] 0
x[39,1] 1
x[40,0] 1
x[40,1] 0
x[41,0] 1
x[41,1] 0
x[42,0] 1
x[42,1] 0
x[43,0] 0
x[43,1] 1
x[44,0] 0
x[44,1] 1
x[45,0] 1
x[45,1] 0
x[46,0] 0
x[46,1] 1
x[47,0] 0
x[47,1] 1
x[48,0] 1
x[48,1] 0
x[49,0] 0
x[49,1] 1
x[50,0] 0
x[50,1] 1
x[51,0] 0
x[51,1] 1
x[52,0] 0
x[52,1] 1
x[53,0] 1
x[53,1] 0
x[54,0] 0
x[54,1] 1
x[55,0] 0
x[55,1] 1
x[56,0] 0
x[56,1] 1
x[57,0] 0
x[57,1] 1
x[58,0] 0
x[58,1] 1
x[59,0] 0
x[59,1] 1
x[60,0] 1
x[60,1] 0
x[61,0] 0
x[61,1] 1
x[62,0] 1
x[62,1] 0
x[63,0] 0
x[63,1] 1
x[64,0] 0
x[64,1] 1
x[65,0] 0
x[65,1] 1
x[66,0] 1
x[66,1] 0
x[67,0] 1
x[67,1] 0
x[68,0] 0
x[68,1] 1
x[69,0] 0
x[69,1] 1
x[70,0] 1
x[70,1] 0
x[71,0] 0
x[71,1] 1
x[72,0] 0
x[72,1] 1
x[73,0] 0
x[73,1] 1
x[74,0] 0
x[74,1] 1
x[75,0] 0
x[75,1] 1
x[76,0] 0
x[76,1] 1
x[77,0] 0
x[77,1] 1
x[78,0] 1
x[78,1] 0
x[79,0] 0
x[79,1] 1
x[80,0] 0
x[80,1] 1
x[81,0] 0
x[81,1] 1
x[82,0] 1
x[82,1] 0
x[83,0] 0
x[83,1] 1
x[84,0] 1
x[84,1] 0
x[85,0] 0
x[85,1] 1
x[86,0] 0
x[86,1] 1
x[87,0] 0
x[87,1] 1
x[88,0] 1
x[88,1] 0
x[89,0] 0
x[89,1] 1
x[90,0] 0
x[90,1] 1
x[91,0] 0
x[91,1] 1
x[92,0] 0
x[92,1] 1
x[93,0] 0
x[93,1] 1
x[94,0] 0
x[94,1] 1
x[95,0] 0
x[95,1] 1
x[96,0] 0
x[96,1] 1
x[97,0] 0
x[97,1] 1
x[98,0] 0
x[98,1] 1
x[99,0] 0
x[99,1] 1
x[100,0] 0
x[100,1] 1
x[101,0] 1
x[101,1] 0
x[102,0] 0
x[102,1] 1
x[103,0] 1
x[103,1] 0
x[104,0] 1
x[104,1] 0
x[105,0] 0
x[105,1] 1
x[106,0] 0
x[106,1] 1
x[107,0] 0
x[107,1] 1
x[108,0] 1
x[108,1] 0
x[109,0] 1
x[109,1] 0
x[110,0] 1
x[110,1] 0
x[111,0] 0
x[111,1] 1
x[112,0] 1
x[112,1] 0
x[113,0] 0
x[113,1] 1
x[114,0] 1
x[114,1] 0
x[115,0] 1
x[115,1] 0
x[116,0] 1
x[116,1] 0
x[117,0] 0
x[117,1] 1
x[118,0] 0
x[118,1] 1
x[119,0] 0
x[119,1] 1
x[120,0] 0
x[120,1] 1
x[121,0] 0
x[121,1] 1
x[122,0] 0
x[122,1] 1
x[123,0] 0
x[123,1] 1
x[124,0] 0
x[124,1] 1
x[125,0] 0
x[125,1] 1
x[126,0] 0
x[126,1] 1
x[127,0] 0
x[127,1] 1
x[128,0] 0
x[128,1] 1
x[129,0] 0
x[129,1] 1
x[130,0] 1
x[130,1] 0
x[131,0] 1
x[131,1] 0
x[132,0] 0
x[132,1] 1
x[133,0] 1
x[133,1] 0
x[134,0] 0
x[134,1] 1
x[135,0] 0
x[135,1] 1
x[136,0] 1
x[136,1] 0
x[137,0] 0
x[137,1] 1
x[138,0] 0
x[138,1] 1
x[139,0] 0
x[139,1] 1
x[140,0] 1
x[140,1] 0
x[141,0] 1
x[141,1] 0
x[142,0] 0
x[142,1] 1
x[143,0] 0
x[143,1] 1
x[144,0] 0
x[144,1] 1
x[145,0] 1
x[145,1] 0
x[146,0] 1
x[146,1] 0
x[147,0] 0
x[147,1] 1
x[148,0] 0
x[148,1] 1
x[149,0] 0
x[149,1] 1
x[150,0] 0
x[150,1] 1
x[151,0] 0
x[151,1] 1
x[152,0] 0
x[152,1] 1
x[153,0] 0
x[153,1] 1
x[154,0] 0
x[154,1] 1
x[155,0] 0
x[155,1] 1
x[156,0] 0
x[156,1] 1
x[157,0] 1
x[157,1] 0
x[158,0] 0
x[158,1] 1
x[159,0] 0
x[159,1] 1
x[160,0] 1
x[160,1] 0
x[161,0] 1
x[161,1] 0
x[162,0] 0
x[162,1] 1
x[163,0] 0
x[163,1] 1
x[164,0] 1
x[164,1] 0
x[165,0] 1
x[165,1] 0
x[166,0] 0
x[166,1] 1
x[167,0] 0
x[167,1] 1
x[168,0] 0
x[168,1] 1
x[169,0] 0
x[169,1] 1
x[170,0] 0
x[170,1] 1
x[171,0] 0
x[171,1] 1
x[172,0] 0
x[172,1] 1
x[173,0] 0
x[173,1] 1
x[174,0] 1
x[174,1] 0
x[175,0] 0
x[175,1] 1
x[176,0] 0
x[176,1] 1
x[177,0] 1
x[177,1] 0
x[178,0] 0
x[178,1] 1
x[179,0] 1
x[179,1] 0
x[180,0] 0
x[180,1] 1
x[181,0] 1
x[181,1] 0
x[182,0] 0
x[182,1] 1
x[183,0] 0
x[183,1] 1
x[184,0] 0
x[184,1] 1
x[185,0] 1
x[185,1] 0
x[186,0] 0
x[186,1] 1
x[187,0] 0
x[187,1] 1
x[188,0] 0
x[188,1] 1
x[189,0] 0
x[189,1] 1
x[190,0] 1
x[190,1] 0
x[191,0] 0
x[191,1] 1
x[192,0] 0
x[192,1] 1
x[193,0] 0
x[193,1] 1
x[194,0] 0
x[194,1] 1
x[195,0] 0
x[195,1] 1
x[196,0] 1
x[196,1] 0
x[197,0] 1
x[197,1] 0
x[198,0] 1
x[198,1] 0
x[199,0] 0
x[199,1] 1
x[200,0] 1
x[200,1] 0
x[201,0] 0
x[201,1] 1
x[202,0] 0
x[202,1] 1
x[203,0] 1
x[203,1] 0
x[204,0] 0
x[204,1] 1
x[205,0] 1
x[205,1] 0
x[206,0] 0
x[206,1] 1
x[207,0] 0
x[207,1] 1
x[208,0] 0
x[208,1] 1
x[209,0] 1
x[209,1] 0
x[210,0] 1
x[210,1] 0
x[211,0] 1
x[211,1] 0
x[212,0] 0
x[212,1] 1
x[213,0] 0
x[213,1] 1
x[214,0] 0
x[214,1] 1
x[215,0] 1
x[215,1] 0
x[216,0] 0
x[216,1] 1
x[217,0] 1
x[217,1] 0
x[218,0] 1
x[218,1] 0
x[219,0] 0
x[219,1] 1
x[220,0] 0
x[220,1] 1
x[221,0] 0
x[221,1] 1
x[222,0] 1
x[222,1] 0
x[223,0] 1
x[223,1] 0
x[224,0] 0
x[224,1] 1
x[225,0] 1
x[225,1] 0
x[226,0] 0
x[226,1] 1
x[227,0] 1
x[227,1] 0
x[228,0] 1
x[228,1] 0
x[229,0] 0
x[229,1] 1
x[230,0] 0
x[230,1] 1
x[231,0] 0
x[231,1] 1
x[232,0] 0
x[232,1] 1
x[233,0] 0
x[233,1] 1
x[234,0] 0
x[234,1] 1
x[235,0] 0
x[235,1] 1
x[236,0] 1
x[236,1] 0
x[237,0] 1
x[237,1] 0
x[238,0] 1
x[238,1] 0
x[239,0] 1
x[239,1] 0
x[240,0] 0
x[240,1] 1
x[241,0] 0
x[241,1] 1
x[242,0] 0
x[242,1] 1
x[243,0] 1
x[243,1] 0
x[244,0] 1
x[244,1] 0
x[245,0] 1
x[245,1] 0
x[246,0] 0
x[246,1] 1
x[247,0] 0
x[247,1] 1
x[248,0] 0
x[248,1] 1
x[249,0] 1
x[249,1] 0
x[250,0] 0
x[250,1] 1
x[251,0] 0
x[251,1] 1
x[252,0] 1
x[252,1] 0
x[253,0] 0
x[253,1] 1
x[254,0] 1
x[254,1] 0
x[255,0] 0
x[255,1] 1
x[256,0] 0
x[256,1] 1
x[257,0] 0
x[257,1] 1
x[258,0] 0
x[258,1] 1
x[259,0] 0
x[259,1] 1
x[260,0] 1
x[260,1] 0
x[261,0] 0
x[261,1] 1
x[262,0] 1
x[262,1] 0
x[263,0] 0
x[263,1] 1
x[264,0] 0
x[264,1] 1
x[265,0] 0
x[265,1] 1
x[266,0] 0
x[266,1] 1
x[267,0] 0
x[267,1] 1
x[268,0] 1
x[268,1] 0
x[269,0] 0
x[269,1] 1
x[270,0] 0
x[270,1] 1
x[271,0] 1
x[271,1] 0
x[272,0] 0
x[272,1] 1
x[273,0] 0
x[273,1] 1
x[274,0] 0
x[274,1] 1
x[275,0] 0
x[275,1] 1
x[276,0] 1
x[276,1] 0
x[277,0] 1
x[277,1] 0
x[278,0] 0
x[278,1] 1
x[279,0] 1
x[279,1] 0
x[280,0] 0
x[280,1] 1
x[281,0] 0
x[281,1] 1
x[282,0] 1
x[282,1] 0
x[283,0] 1
x[283,1] 0
x[284,0] 1
x[284,1] 0
x[285,0] 0
x[285,1] 1
x[286,0] 0
x[286,1] 1
x[287,0] 1
x[287,1] 0
x[288,0] 0
x[288,1] 1
x[289,0] 0
x[289,1] 1
x[290,0] 0
x[290,1] 1
x[291,0] 1
x[291,1] 0
x[292,0] 1
x[292,1] 0
x[293,0] 1
x[293,1] 0
x[294,0] 0
x[294,1] 1
x[295,0] 1
x[295,1] 0
x[296,0] 1
x[296,1] 0
x[297,0] 0
x[297,1] 1
x[298,0] 0
x[298,1] 1
x[299,0] 1
x[299,1] 0
x[300,0] 0
x[300,1] 1
x[301,0] 0
x[301,1] 1
x[302,0] 0
x[302,1] 1
x[303,0] 1
x[303,1] 0
x[304,0] 1
x[304,1] 0
x[305,0] 0
x[305,1] 1
x[306,0] 1
x[306,1] 0
x[307,0] 0
x[307,1] 1
x[308,0] 0
x[308,1] 1
x[309,0] 1
x[309,1] 0
x[310,0] 1
x[310,1] 0
x[311,0] 1
x[311,1] 0
x[312,0] 0
x[312,1] 1
x[313,0] 1
x[313,1] 0
x[314,0] 0
x[314,1] 1
x[315,0] 0
x[315,1] 1
x[316,0] 0
x[316,1] 1
x[317,0] 0
x[317,1] 1
x[318,0] 0
x[318,1] 1
x[319,0] 0
x[319,1] 1
x[320,0] 1
x[320,1] 0
x[321,0] 1
x[321,1] 0
x[322,0] 0
x[322,1] 1
x[323,0] 1
x[323,1] 0
x[324,0] 1
x[324,1] 0
x[325,0] 0
x[325,1] 1
x[326,0] 0
x[326,1] 1
x[327,0] 0
x[327,1] 1
x[328,0] 1
x[328,1] 0
x[329,0] 1
x[329,1] 0
x[330,0] 1
x[330,1] 0
x[331,0] 0
x[331,1] 1
x[332,0] 0
x[332,1] 1
x[333,0] 1
x[333,1] 0
x[334,0] 0
x[334,1] 1
x[335,0] 1
x[335,1] 0
x[336,0] 1
x[336,1] 0
x[337,0] 0
x[337,1] 1
x[338,0] 0
x[338,1] 1
x[339,0] 0
x[339,1] 1
x[340,0] 0
x[340,1] 1
x[341,0] 0
x[341,1] 1
x[342,0] 0
x[342,1] 1
x[343,0] 0
x[343,1] 1
x[344,0] 0
x[344,1] 1
x[345,0] 0
x[345,1] 1
x[346,0] 0
x[346,1] 1
x[347,0] 0
x[347,1] 1
x[348,0] 1
x[348,1] 0
x[349,0] 0
x[349,1] 1
x[350,0] 0
x[350,1] 1
x[351,0] 0
x[351,1] 1
x[352,0] 1
x[352,1] 0
x[353,0] 0
x[353,1] 1
x[354,0] 0
x[354,1] 1
x[355,0] 1
x[355,1] 0
x[356,0] 1
x[356,1] 0
x[357,0] 0
x[357,1] 1
x[358,0] 0
x[358,1] 1
x[359,0] 1
x[359,1] 0
x[360,0] 1
x[360,1] 0
x[361,0] 0
x[361,1] 1
x[362,0] 0
x[362,1] 1
x[363,0] 0
x[363,1] 1
x[364,0] 0
x[364,1] 1
x[365,0] 0
x[365,1] 1
x[366,0] 0
x[366,1] 1
x[367,0] 0
x[367,1] 1
x[368,0] 0
x[368,1] 1
x[369,0] 1
x[369,1] 0
x[370,0] 0
x[370,1] 1
x[371,0] 0
x[371,1] 1
x[372,0] 1
x[372,1] 0
x[373,0] 0
x[373,1] 1
x[374,0] 1
x[374,1] 0
x[375,0] 0
x[375,1] 1
x[376,0] 1
x[376,1] 0
x[377,0] 1
x[377,1] 0
x[378,0] 0
x[378,1] 1
x[379,0] 0
x[379,1] 1
x[380,0] 1
x[380,1] 0
x[381,0] 0
x[381,1] 1
x[382,0] 0
x[382,1] 1
x[383,0] 1
x[383,1] 0
x[384,0] 0
x[384,1] 1
x[385,0] 1
x[385,1] 0
x[386,0] 0
x[386,1] 1
x[387,0] 1
x[387,1] 0
x[388,0] 0
x[388,1] 1
x[389,0] 0
x[389,1] 1
x[390,0] 0
x[390,1] 1
x[391,0] 0
x[391,1] 1
x[392,0] 0
x[392,1] 1
x[393,0] 1
x[393,1] 0
x[394,0] 1
x[394,1] 0
x[395,0] 0
x[395,1] 1
x[396,0] 0
x[396,1] 1
x[397,0] 1
x[397,1] 0
x[398,0] 0
x[398,1] 1
x[399,0] 0
x[399,1] 1
x[400,0] 0
x[400,1] 1
x[401,0] 0
x[401,1] 1
x[402,0] 0
x[402,1] 1
x[403,0] 1
x[403,1] 0
x[404,0] 0
x[404,1] 1
x[405,0] 0
x[405,1] 1
x[406,0] 0
x[406,1] 1
x[407,0] 0
x[407,1] 1
x[408,0] 0
x[408,1] 1
x[409,0] 1
x[409,1] 0
x[410,0] 1
x[410,1] 0
x[411,0] 0
x[411,1] 1
x[412,0] 0
x[412,1] 1
x[413,0] 1
x[413,1] 0
x[414,0] 0
x[414,1] 1
x[415,0] 0
x[415,1] 1
x[416,0] 0
x[416,1] 1
x[417,0] 0
x[417,1] 1
x[418,0] 0
x[418,1] 1
x[419,0] 0
x[419,1] 1
x[420,0] 0
x[420,1] 1
x[421,0] 0
x[421,1] 1
x[422,0] 1
x[422,1] 0
x[423,0] 0
x[423,1] 1
x[424,0] 0
x[424,1] 1
x[425,0] 0
x[425,1] 1
x[426,0] 0
x[426,1] 1
x[427,0] 0
x[427,1] 1
x[428,0] 1
x[428,1] 0
x[429,0] 0
x[429,1] 1
x[430,0] 0
x[430,1] 1
x[431,0] 0
x[431,1] 1
x[432,0] 1
x[432,1] 0
x[433,0] 1
x[433,1] 0
x[434,0] 1
x[434,1] 0
x[435,0] 0
x[435,1] 1
x[436,0] 1
x[436,1] 0
x[437,0] 1
x[437,1] 0
x[438,0] 1
x[438,1] 0
x[439,0] 0
x[439,1] 1
x[440,0] 0
x[440,1] 1
x[441,0] 0
x[441,1] 1
x[442,0] 1
x[442,1] 0
x[443,0] 0
x[443,1] 1
x[444,0] 0
x[444,1] 1
x[445,0] 1
x[445,1] 0
x[446,0] 0
x[446,1] 1
x[447,0] 0
x[447,1] 1
x[448,0] 0
x[448,1] 1
x[449,0] 1
x[449,1] 0
x[450,0] 0
x[450,1] 1
x[451,0] 0
x[451,1] 1
x[452,0] 0
x[452,1] 1
x[453,0] 0
x[453,1] 1
x[454,0] 1
x[454,1] 0
x[455,0] 1
x[455,1] 0
x[456,0] 0
x[456,1] 1
x[457,0] 1
x[457,1] 0
x[458,0] 1
x[458,1] 0
x[459,0] 1
x[459,1] 0
x[460,0] 0
x[460,1] 1
x[461,0] 0
x[461,1] 1
x[462,0] 0
x[462,1] 1
x[463,0] 1
x[463,1] 0
x[464,0] 1
x[464,1] 0
x[465,0] 0
x[465,1] 1
x[466,0] 0
x[466,1] 1
x[467,0] 1
x[467,1] 0
x[468,0] 1
x[468,1] 0
x[469,0] 0
x[469,1] 1
x[470,0] 0
x[470,1] 1
x[471,0] 1
x[471,1] 0
x[472,0] 0
x[472,1] 1
x[473,0] 1
x[473,1] 0
x[474,0] 1
x[474,1] 0
x[475,0] 0
x[475,1] 1
x[476,0] 0
x[476,1] 1
x[477,0] 0
x[477,1] 1
x[478,0] 0
x[478,1] 1
x[479,0] 1
x[479,1] 0
x[480,0] 1
x[480,1] 0
x[481,0] 0
x[481,1] 1
x[482,0] 0
x[482,1] 1
x[483,0] 1
x[483,1] 0
x[484,0] 0
x[484,1] 1
x[485,0] 1
x[485,1] 0
x[486,0] 1
x[486,1] 0
x[487,0] 0
x[487,1] 1
x[488,0] 1
x[488,1] 0
x[489,0] 0
x[489,1] 1
x[490,0] 0
x[490,1] 1
x[491,0] 1
x[491,1] 0
x[492,0] 1
x[492,1] 0
x[493,0] 0
x[493,1] 1
x[494,0] 1
x[494,1] 0
x[495,0] 0
x[495,1] 1
x[496,0] 0
x[496,1] 1
x[497,0] 0
x[497,1] 1
x[498,0] 0
x[498,1] 1
x[499,0] 1
x[499,1] 0
x[500,0] 0
x[500,1] 1
x[501,0] 0
x[501,1] 1
x[502,0] 0
x[502,1] 1
x[503,0] 1
x[503,1] 0
x[504,0] 0
x[504,1] 1
x[505,0] 0
x[505,1] 1
x[506,0] 0
x[506,1] 1
x[507,0] 0
x[507,1] 1
x[508,0] 0
x[508,1] 1
x[509,0] 1
x[509,1] 0
x[510,0] 0
x[510,1] 1
x[511,0] 0
x[511,1] 1
x[512,0] 1
x[512,1] 0
x[513,0] 1
x[513,1] 0
x[514,0] 0
x[514,1] 1
x[515,0] 1
x[515,1] 0
x[516,0] 1
x[516,1] 0
x[517,0] 0
x[517,1] 1
x[518,0] 0
x[518,1] 1
x[519,0] 0
x[519,1] 1
x[520,0] 0
x[520,1] 1
x[521,0] 1
x[521,1] 0
x[522,0] 0
x[522,1] 1
x[523,0] 1
x[523,1] 0
x[524,0] 1
x[524,1] 0
x[525,0] 0
x[525,1] 1
x[526,0] 0
x[526,1] 1
x[527,0] 0
x[527,1] 1
x[528,0] 1
x[528,1] 0
x[529,0] 1
x[529,1] 0
x[530,0] 1
x[530,1] 0
x[531,0] 1
x[531,1] 0
x[532,0] 0
x[532,1] 1
x[533,0] 0
x[533,1] 1
x[534,0] 0
x[534,1] 1
x[535,0] 1
x[535,1] 0
x[536,0] 0
x[536,1] 1
x[537,0] 0
x[537,1] 1
x[538,0] 0
x[538,1] 1
x[539,0] 0
x[539,1] 1
x[540,0] 0
x[540,1] 1
x[541,0] 0
x[541,1] 1
x[542,0] 0
x[542,1] 1
x[543,0] 1
x[543,1] 0
x[544,0] 1
x[544,1] 0
x[545,0] 1
x[545,1] 0
x[546,0] 0
x[546,1] 1
x[547,0] 0
x[547,1] 1
x[548,0] 0
x[548,1] 1
x[549,0] 0
x[549,1] 1
x[550,0] 1
x[550,1] 0
x[551,0] 1
x[551,1] 0
x[552,0] 0
x[552,1] 1
x[553,0] 0
x[553,1] 1
x[554,0] 0
x[554,1] 1
x[555,0] 0
x[555,1] 1
x[556,0] 0
x[556,1] 1
x[557,0] 1
x[557,1] 0
x[558,0] 0
x[558,1] 1
x[559,0] 1
x[559,1] 0
x[560,0] 0
x[560,1] 1
x[561,0] 1
x[561,1] 0
x[562,0] 1
x[562,1] 0
x[563,0] 0
x[563,1] 1
x[564,0] 0
x[564,1] 1
x[565,0] 0
x[565,1] 1
x[566,0] 0
x[566,1] 1
x[567,0] 0
x[567,1] 1
x[568,0] 0
x[568,1] 1
x[569,0] 1
x[569,1] 0
x[570,0] 0
x[570,1] 1
x[571,0] 0
x[571,1] 1
x[572,0] 1
x[572,1] 0
x[573,0] 1
x[573,1] 0
x[574,0] 1
x[574,1] 0
x[575,0] 1
x[575,1] 0
x[576,0] 0
x[576,1] 1
x[577,0] 1
x[577,1] 0
x[578,0] 0
x[578,1] 1
x[579,0] 0
x[579,1] 1
x[580,0] 0
x[580,1] 1
x[581,0] 0
x[581,1] 1
x[582,0] 1
x[582,1] 0
x[583,0] 1
x[583,1] 0
x[584,0] 0
x[584,1] 1
x[585,0] 1
x[585,1] 0
x[586,0] 0
x[586,1] 1
x[587,0] 1
x[587,1] 0
x[588,0] 0
x[588,1] 1
x[589,0] 0
x[589,1] 1
x[590,0] 0
x[590,1] 1
x[591,0] 0
x[591,1] 1
x[592,0] 1
x[592,1] 0
x[593,0] 1
x[593,1] 0
x[594,0] 0
x[594,1] 1
x[595,0] 0
x[595,1] 1
x[596,0] 0
x[596,1] 1
x[597,0] 0
x[597,1] 1
x[598,0] 0
x[598,1] 1
x[599,0] 0
x[599,1] 1
x[600,0] 1
x[600,1] 0
x[601,0] 0
x[601,1] 1
x[602,0] 0
x[602,1] 1
x[603,0] 0
x[603,1] 1
x[604,0] 0
x[604,1] 1
x[605,0] 0
x[605,1] 1
x[606,0] 0
x[606,1] 1
x[607,0] 1
x[607,1] 0
x[608,0] 0
x[608,1] 1
x[609,0] 0
x[609,1] 1
x[610,0] 0
x[610,1] 1
x[611,0] 1
x[611,1] 0
x[612,0] 1
x[612,1] 0
x[613,0] 0
x[613,1] 1
x[614,0] 0
x[614,1] 1
x[615,0] 1
x[615,1] 0
x[616,0] 0
x[616,1] 1
x[617,0] 0
x[617,1] 1
x[618,0] 0
x[618,1] 1
x[619,0] 0
x[619,1] 1
x[620,0] 0
x[620,1] 1
x[621,0] 0
x[621,1] 1
x[622,0] 0
x[622,1] 1
x[623,0] 0
x[623,1] 1
x[624,0] 0
x[624,1] 1
x[625,0] 0
x[625,1] 1
x[626,0] 1
x[626,1] 0
x[627,0] 0
x[627,1] 1
x[628,0] 1
x[628,1] 0
x[629,0] 0
x[629,1] 1
x[630,0] 0
x[630,1] 1
x[631,0] 0
x[631,1] 1
x[632,0] 0
x[632,1] 1
x[633,0] 0
x[633,1] 1
x[634,0] 0
x[634,1] 1
x[635,0] 0
x[635,1] 1
x[636,0] 1
x[636,1] 0
x[637,0] 0
x[637,1] 1
x[638,0] 1
x[638,1] 0
x[639,0] 0
x[639,1] 1
x[640,0] 1
x[640,1] 0
x[641,0] 0
x[641,1] 1
x[642,0] 1
x[642,1] 0
x[643,0] 0
x[643,1] 1
x[644,0] 1
x[644,1] 0
x[645,0] 0
x[645,1] 1
x[646,0] 0
x[646,1] 1
x[647,0] 0
x[647,1] 1
x[648,0] 0
x[648,1] 1
x[649,0] 1
x[649,1] 0
x[650,0] 0
x[650,1] 1
x[651,0] 1
x[651,1] 0
x[652,0] 1
x[652,1] 0
x[653,0] 0
x[653,1] 1
x[654,0] 1
x[654,1] 0
x[655,0] 0
x[655,1] 1
x[656,0] 1
x[656,1] 0
x[657,0] 0
x[657,1] 1
x[658,0] 0
x[658,1] 1
x[659,0] 1
x[659,1] 0
x[660,0] 1
x[660,1] 0
x[661,0] 0
x[661,1] 1
x[662,0] 0
x[662,1] 1
x[663,0] 1
x[663,1] 0
x[664,0] 0
x[664,1] 1
x[665,0] 0
x[665,1] 1
x[666,0] 1
x[666,1] 0
x[667,0] 1
x[667,1] 0
x[668,0] 1
x[668,1] 0
x[669,0] 0
x[669,1] 1
x[670,0] 0
x[670,1] 1
x[671,0] 0
x[671,1] 1
x[672,0] 0
x[672,1] 1
x[673,0] 0
x[673,1] 1
x[674,0] 0
x[674,1] 1
x[675,0] 1
x[675,1] 0
x[676,0] 1
x[676,1] 0
x[677,0] 0
x[677,1] 1
x[678,0] 1
x[678,1] 0
x[679,0] 1
x[679,1] 0
x[680,0] 1
x[680,1] 0
x[681,0] 1
x[681,1] 0
x[682,0] 0
x[682,1] 1
x[683,0] 1
x[683,1] 0
x[684,0] 1
x[684,1] 0
x[685,0] 0
x[685,1] 1
x[686,0] 1
x[686,1] 0
x[687,0] 1
x[687,1] 0
x[688,0] 0
x[688,1] 1
x[689,0] 0
x[689,1] 1
x[690,0] 0
x[690,1] 1
x[691,0] 1
x[691,1] 0
x[692,0] 1
x[692,1] 0
x[693,0] 0
x[693,1] 1
x[694,0] 0
x[694,1] 1
x[695,0] 0
x[695,1] 1
x[696,0] 1
x[696,1] 0
x[697,0] 0
x[697,1] 1
x[698,0] 0
x[698,1] 1
x[699,0] 0
x[699,1] 1
x[700,0] 0
x[700,1] 1
x[701,0] 0
x[701,1] 1
x[702,0] 0
x[702,1] 1
x[703,0] 1
x[703,1] 0
x[704,0] 0
x[704,1] 1
x[705,0] 1
x[705,1] 0
x[706,0] 0
x[706,1] 1
x[707,0] 0
x[707,1] 1
x[708,0] 0
x[708,1] 1
x[709,0] 0
x[709,1] 1
x[710,0] 1
x[710,1] 0
x[711,0] 0
x[711,1] 1
x[712,0] 0
x[712,1] 1
x[713,0] 0
x[713,1] 1
x[714,0] 0
x[714,1] 1
x[715,0] 0
x[715,1] 1
x[716,0] 0
x[716,1] 1
x[717,0] 1
x[717,1] 0
x[718,0] 0
x[718,1] 1
x[719,0] 1
x[719,1] 0
x[720,0] 0
x[720,1] 1
x[721,0] 0
x[721,1] 1
x[722,0] 0
x[722,1] 1
x[723,0] 0
x[723,1] 1
x[724,0] 0
x[724,1] 1
x[725,0] 0
x[725,1] 1
x[726,0] 0
x[726,1] 1
x[727,0] 1
x[727,1] 0
x[728,0] 0
x[728,1] 1
x[729,0] 0
x[729,1] 1
x[730,0] 0
x[730,1] 1
x[731,0] 1
x[731,1] 0
x[732,0] 0
x[732,1] 1
x[733,0] 0
x[733,1] 1
x[734,0] 0
x[734,1] 1
x[735,0] 0
x[735,1] 1
x[736,0] 0
x[736,1] 1
x[737,0] 0
x[737,1] 1
x[738,0] 0
x[738,1] 1
x[739,0] 0
x[739,1] 1
x[740,0] 0
x[740,1] 1
x[741,0] 0
x[741,1] 1
x[742,0] 0
x[742,1] 1
x[743,0] 0
x[743,1] 1
x[744,0] 0
x[744,1] 1
x[745,0] 0
x[745,1] 1
x[746,0] 0
x[746,1] 1
x[747,0] 0
x[747,1] 1
x[748,0] 0
x[748,1] 1
x[749,0] 0
x[749,1] 1
x[750,0] 0
x[750,1] 1
x[751,0] 0
x[751,1] 1
x[752,0] 0
x[752,1] 1
x[753,0] 0
x[753,1] 1
x[754,0] 0
x[754,1] 1
x[755,0] 0
x[755,1] 1
x[756,0] 1
x[756,1] 0
x[757,0] 0
x[757,1] 1
x[758,0] 1
x[758,1] 0
x[759,0] 0
x[759,1] 1
x[760,0] 1
x[760,1] 0
x[761,0] 0
x[761,1] 1
x[762,0] 1
x[762,1] 0
x[763,0] 1
x[763,1] 0
x[764,0] 0
x[764,1] 1
x[765,0] 0
x[765,1] 1
x[766,0] 0
x[766,1] 1
x[767,0] 0
x[767,1] 1
x[768,0] 0
x[768,1] 1
x[769,0] 1
x[769,1] 0
x[770,0] 0
x[770,1] 1
x[771,0] 1
x[771,1] 0
x[772,0] 1
x[772,1] 0
x[773,0] 1
x[773,1] 0
x[774,0] 1
x[774,1] 0
x[775,0] 0
x[775,1] 1
x[776,0] 0
x[776,1] 1
x[777,0] 1
x[777,1] 0
x[778,0] 1
x[778,1] 0
x[779,0] 0
x[779,1] 1
x[780,0] 1
x[780,1] 0
x[781,0] 0
x[781,1] 1
x[782,0] 0
x[782,1] 1
x[783,0] 1
x[783,1] 0
x[784,0] 1
x[784,1] 0
x[785,0] 0
x[785,1] 1
x[786,0] 0
x[786,1] 1
x[787,0] 1
x[787,1] 0
x[788,0] 1
x[788,1] 0
x[789,0] 0
x[789,1] 1
x[790,0] 0
x[790,1] 1
x[791,0] 1
x[791,1] 0
x[792,0] 0
x[792,1] 1
x[793,0] 0
x[793,1] 1
x[794,0] 0
x[794,1] 1
x[795,0] 0
x[795,1] 1
x[796,0] 0
x[796,1] 1
x[797,0] 0
x[797,1] 1
x[798,0] 0
x[798,1] 1
x[799,0] 0
x[799,1] 1
x[800,0] 1
x[800,1] 0
x[801,0] 1
x[801,1] 0
x[802,0] 1
x[802,1] 0
x[803,0] 1
x[803,1] 0
x[804,0] 1
x[804,1] 0
x[805,0] 0
x[805,1] 1
x[806,0] 0
x[806,1] 1
x[807,0] 0
x[807,1] 1
x[808,0] 1
x[808,1] 0
x[809,0] 0
x[809,1] 1
x[810,0] 1
x[810,1] 0
x[811,0] 1
x[811,1] 0
x[812,0] 1
x[812,1] 0
x[813,0] 0
x[813,1] 1
x[814,0] 0
x[814,1] 1
x[815,0] 1
x[815,1] 0
x[816,0] 1
x[816,1] 0
x[817,0] 0
x[817,1] 1
x[818,0] 0
x[818,1] 1
x[819,0] 1
x[819,1] 0
x[820,0] 0
x[820,1] 1
x[821,0] 0
x[821,1] 1
x[822,0] 1
x[822,1] 0
x[823,0] 0
x[823,1] 1
x[824,0] 0
x[824,1] 1
x[825,0] 0
x[825,1] 1
x[826,0] 0
x[826,1] 1
x[827,0] 1
x[827,1] 0
x[828,0] 1
x[828,1] 0
x[829,0] 0
x[829,1] 1
x[830,0] 1
x[830,1] 0
x[831,0] 0
x[831,1] 1
x[832,0] 1
x[832,1] 0
x[833,0] 1
x[833,1] 0
x[834,0] 0
x[834,1] 1
x[835,0] 0
x[835,1] 1
x[836,0] 0
x[836,1] 1
x[837,0] 0
x[837,1] 1
x[838,0] 1
x[838,1] 0
x[839,0] 0
x[839,1] 1
x[840,0] 0
x[840,1] 1
x[841,0] 1
x[841,1] 0
x[842,0] 1
x[842,1] 0
x[843,0] 0
x[843,1] 1
x[844,0] 1
x[844,1] 0
x[845,0] 1
x[845,1] 0
x[846,0] 1
x[846,1] 0
x[847,0] 0
x[847,1] 1
x[848,0] 0
x[848,1] 1
x[849,0] 0
x[849,1] 1
x[850,0] 1
x[850,1] 0
x[851,0] 1
x[851,1] 0
x[852,0] 0
x[852,1] 1
x[853,0] 0
x[853,1] 1
x[854,0] 1
x[854,1] 0
x[855,0] 1
x[855,1] 0
x[856,0] 0
x[856,1] 1
x[857,0] 0
x[857,1] 1
x[858,0] 1
x[858,1] 0
x[859,0] 0
x[859,1] 1
x[860,0] 0
x[860,1] 1
x[861,0] 1
x[861,1] 0
x[862,0] 0
x[862,1] 1
x[863,0] 1
x[863,1] 0
x[864,0] 1
x[864,1] 0
x[865,0] 0
x[865,1] 1
x[866,0] 0
x[866,1] 1
x[867,0] 0
x[867,1] 1
x[868,0] 0
x[868,1] 1
x[869,0] 0
x[869,1] 1
x[870,0] 0
x[870,1] 1
x[871,0] 0
x[871,1] 1
x[872,0] 0
x[872,1] 1
x[873,0] 0
x[873,1] 1
x[874,0] 0
x[874,1] 1
x[875,0] 1
x[875,1] 0
x[876,0] 0
x[876,1] 1
z[0,0,-1] 0
z[0,0,0] 1
z[0,0,1] 0
z[0,1,-1] 1
z[0,1,0] 0
z[0,1,1] 0
z[1,0,-1] 0
z[1,0,0] 1
z[1,0,1] 0
z[1,1,-1] 0
z[1,1,0] 1
z[1,1,1] 0
z[2,0,-1] 0
z[2,0,0] 1
z[2,0,1] 0
z[2,1,-1] 1
z[2,1,0] 0
z[2,1,1] 0
z[3,0,-1] 1
z[3,0,0] 0
z[3,0,1] 0
z[3,1,-1] 0
z[3,1,0] 1
z[3,1,1] 0
z[4,0,-1] 0
z[4,0,0] 1
z[4,0,1] 0
z[4,1,-1] 0
z[4,1,0] 1
z[4,1,1] 0
z[5,0,-1] 0
z[5,0,0] 1
z[5,0,1] 0
z[5,1,-1] 0
z[5,1,0] 1
z[5,1,1] 0
z[6,0,-1] 0
z[6,0,0] 1
z[6,0,1] 0
z[6,1,-1] 0
z[6,1,0] 0
z[6,1,1] 1
z[7,0,-1] 0
z[7,0,0] 1
z[7,0,1] 0
z[7,1,-1] 1
z[7,1,0] 0
z[7,1,1] 0
z[8,0,-1] 1
z[8,0,0] 0
z[8,0,1] 0
z[8,1,-1] 0
z[8,1,0] 0
z[8,1,1] 1
z[9,0,-1] 0
z[9,0,0] 1
z[9,0,1] 0
z[9,1,-1] 0
z[9,1,0] 0
z[9,1,1] 1
z[10,0,-1] 0
z[10,0,0] 1
z[10,0,1] 0
z[10,1,-1] 0
z[10,1,0] 0
z[10,1,1] 1
z[11,0,-1] 0
z[11,0,0] 1
z[11,0,1] 0
z[11,1,-1] 1
z[11,1,0] 0
z[11,1,1] 0
z[12,0,-1] 1
z[12,0,0] 0
z[12,0,1] 0
z[12,1,-1] 0
z[12,1,0] 1
z[12,1,1] 0
z[13,0,-1] 0
z[13,0,0] 1
z[13,0,1] 0
z[13,1,-1] 0
z[13,1,0] 1
z[13,1,1] 0
z[14,0,-1] 0
z[14,0,0] 1
z[14,0,1] 0
z[14,1,-1] 0
z[14,1,0] 1
z[14,1,1] 0
z[15,0,-1] 1
z[15,0,0] 0
z[15,0,1] 0
z[15,1,-1] 0
z[15,1,0] 0
z[15,1,1] 1
z[16,0,-1] 0
z[16,0,0] 1
z[16,0,1] 0
z[16,1,-1] 0
z[16,1,0] 0
z[16,1,1] 1
z[17,0,-1] 0
z[17,0,0] 1
z[17,0,1] 0
z[17,1,-1] 0
z[17,1,0] 0
z[17,1,1] 1
z[18,0,-1] 0
z[18,0,0] 0
z[18,0,1] 1
z[18,1,-1] 0
z[18,1,0] 1
z[18,1,1] 0
z[19,0,-1] 0
z[19,0,0] 0
z[19,0,1] 1
z[19,1,-1] 0
z[19,1,0] 1
z[19,1,1] 0
z[20,0,-1] 0
z[20,0,0] 1
z[20,0,1] 0
z[20,1,-1] 0
z[20,1,0] 1
z[20,1,1] 0
W[0,0,-1] 506
W[0,0,0] 976
W[0,0,1] 340
W[0,1,-1] 2062
W[0,1,0] 508
W[0,1,1] 382
W[1,0,-1] 461
W[1,0,0] 962
W[1,0,1] 399
W[1,1,-1] 205
W[1,1,0] 1705
W[1,1,1] 1042
W[2,0,-1] 710
W[2,0,0] 741
W[2,0,1] 371
W[2,1,-1] 2100
W[2,1,0] 381
W[2,1,1] 471
W[3,0,-1] 1576
W[3,0,0] 130
W[3,0,1] 116
W[3,1,-1] 449
W[3,1,0] 1547
W[3,1,1] 956
W[4,0,-1] 161
W[4,0,0] 1119
W[4,0,1] 542
W[4,1,-1] 851
W[4,1,0] 1333
W[4,1,1] 768
W[5,0,-1] 349
W[5,0,0] 1031
W[5,0,1] 442
W[5,1,-1] 851
W[5,1,0] 1279
W[5,1,1] 822
W[6,0,-1] 426
W[6,0,0] 911
W[6,0,1] 485
W[6,1,-1] 108
W[6,1,0] 649
W[6,1,1] 2195
W[7,0,-1] 647
W[7,0,0] 658
W[7,0,1] 517
W[7,1,-1] 1593
W[7,1,0] 0
W[7,1,1] 1359
W[8,0,-1] 1493
W[8,0,0] 201
W[8,0,1] 128
W[8,1,-1] 245
W[8,1,0] 681
W[8,1,1] 2026
W[9,0,-1] 168
W[9,0,0] 1011
W[9,0,1] 643
W[9,1,-1] 577
W[9,1,0] 420
W[9,1,1] 1955
W[10,0,-1] 344
W[10,0,0] 932
W[10,0,1] 546
W[10,1,-1] 583
W[10,1,0] 359
W[10,1,1] 2010
W[11,0,-1] 630
W[11,0,0] 791
W[11,0,1] 401
W[11,1,-1] 2275
W[11,1,0] 576
W[11,1,1] 101
W[12,0,-1] 1533
W[12,0,0] 181
W[12,0,1] 108
W[12,1,-1] 538
W[12,1,0] 2156
W[12,1,1] 258
W[13,0,-1] 189
W[13,0,0] 1083
W[13,0,1] 550
W[13,1,-1] 1003
W[13,1,0] 1642
W[13,1,1] 307
W[14,0,-1] 325
W[14,0,0] 1021
W[14,0,1] 476
W[14,1,-1] 1074
W[14,1,0] 1653
W[14,1,1] 225
W[15,0,-1] 1406
W[15,0,0] 200
W[15,0,1] 216
W[15,1,-1] 156
W[15,1,0] 601
W[15,1,1] 2195
W[16,0,-1] 176
W[16,0,0] 831
W[16,0,1] 815
W[16,1,-1] 533
W[16,1,0] 374
W[16,1,1] 2045
W[17,0,-1] 160
W[17,0,0] 900
W[17,0,1] 762
W[17,1,-1] 174
W[17,1,0] 549
W[17,1,1] 2229
W[18,0,-1] 148
W[18,0,0] 64
W[18,0,1] 1610
W[18,1,-1] 981
W[18,1,0] 1439
W[18,1,1] 532
W[19,0,-1] 71
W[19,0,0] 159
W[19,0,1] 1592
W[19,1,-1] 1007
W[19,1,0] 1484
W[19,1,1] 461
W[20,0,-1] 471
W[20,0,0] 1162
W[20,0,1] 189
W[20,1,-1] 851
W[20,1,0] 1261
W[20,1,1] 840
C[0,0] 846
C[0,1] 1272
C[1,0] 860
C[1,1] 1247
C[2,0] 1081
C[2,1] 1323
C[3,0] 362
C[3,1] 1405
C[4,0] 703
C[4,1] 1619
C[5,0] 791
C[5,1] 1673
C[6,0] 911
C[6,1] 865
C[7,0] 1164
C[7,1] 2718
C[8,0] 457
C[8,1] 1171
C[9,0] 811
C[9,1] 1574
C[10,0] 890
C[10,1] 1525
C[11,0] 1031
C[11,1] 778
C[12,0] 397
C[12,1] 796
C[13,0] 739
C[13,1] 1310
C[14,0] 801
C[14,1] 1299
C[15,0] 632
C[15,1] 913
C[16,0] 991
C[16,1] 1440
C[17,0] 922
C[17,1] 897
C[18,0] 360
C[18,1] 1513
C[19,0] 301
C[19,1] 1468
C[20,0] 660
C[20,1] 1691
